circuit_heights=[3, 4, 5, 6, 7, 8, 9, 10, 12, 16, 40, 4, 14, 22, 3, 4, 8, 12, 13, 40];
circuit_widths=[3, 3, 3, 3, 3, 3, 3, 3, 3, 3, 3, 4, 4, 4, 5, 5, 5, 5, 5, 22];
max_height=240;
min_height=40;
n_circuits=20;
plate_width=40;
